WARNING: for repeatability, setting FPU to use double precision
============================[ Problem Statistics ]=============================
|                                                                             |
|  Number of variables:            50                                         |
|  Number of clauses:             218                                         |
|  Parse time:                   0.00 s                                       |
|                                                                             |
============================[ Search Statistics ]==============================
| Conflicts |          ORIGINAL         |          LEARNT          | Progress |
|           |    Vars  Clauses Literals |    Limit  Clauses Lit/Cl |          |
===============================================================================
===============================================================================
restarts              : 1
conflicts             : 2              (1572 /sec)
decisions             : 12             (0.00 % random) (9434 /sec)
propagations          : 70             (55031 /sec)
conflict literals     : 12             (0.00 % deleted)
Memory used           : 20.00 MB
CPU time              : 0.001272 s

SATISFIABLE
